49
30
0 30 31 33 35 36 39 40 41 44 46 47
1 30 33 37 41 46
2 30 32 33 35 36 38 39 45 46 47
3 30 31 33 34 36 38 39 41 48
4 30 31 32 33 34 35 37 39 46 48
5 30 31 33 36 38 39 42 44 46 47 48
6 30 31 32 33 36 37 38 39 40 41 46 47
7 30 32 33 36 37 40 41 43 46 47
8 30 32 33 34 36 38 45 46 48
9 32 33 35 36 38 40 43 44 45 46
10 30 31 36 39 42 46
11 30 31 32 33 34 36 37 39 44
12 30 31 32 33 36 38 39 43 46
13 30 31 32 33 34 39 45 46 47
14 34 36 40 42 43 45 47
15 30 34 35 37 39 40 43 45 47
16 34 36 37 41 44 47 48
17 30 32 34 37 39 42 43 48
18 32 36 40 44 45
19 30 31 35 37 40 41 43 47 48
20 31 32 33 37 40 48
21 34 38 39 40 41 46 48
22 31 33 39 44 45 47
23 42 44
24 31 35 37 45
25 30 33
26 43
27 44
28 33
29 39 43
